Route #1: 1 24 22 60 53 99 2 49 91 93 71 54 45 78 42 109 64 82 8 114 3 62 1 
Route #2: 1 4 26 46 28 110 115 118 38 88 61 119 94 84 12 79 83 18 17 41 13 113 1 
Route #3: 1 1 56 35 40 90 57 77 69 85 19 97 66 108 104 63 51 89 95 68 59 37 1 
Route #4: 1 11 27 34 111 102 72 87 10 50 52 31 80 32 21 55 70 39 43 98 103 117 1 
Route #5: 1 100 81 5 9 76 23 58 48 36 33 30 67 25 73 20 116 107 96 112 6 92 1 
Route #6: 1 16 29 14 65 86 74 106 7 15 44 75 47 101 105 1 

Cost 20167
Time 3.7365


 * Another infos *

 Iterations: 120 Time: 3.7365 sec - 0.0623 min - 0.0010 horas
0.0000 h 0.0623 min
Problem dimension: 120
